     Program PWSCF v.6.0 starts on 21Nov2018 at 17:14:26

     Waiting for input...
     Reading input from standard input

     Current dimensions of program PWSCF are:
     Max number of different atomic species (ntypx) = 10
     Max number of k-points (npk) =  40000
     Max angular momentum in pseudopotentials (lmaxx) =  3
               file C.pbe-n-kjpaw_psl.1.0.0.UPF: wavefunction(s)  2S 2P renormalized

     bravais-lattice index     =            0
     lattice parameter (alat)  =       4.6487  a.u.
     unit-cell volume          =   14940.8128 (a.u.)^3
     number of atoms/cell      =           40
     number of atomic types    =            1
     number of electrons       =       160.00
     number of Kohn-Sham states=          180
     kinetic-energy cutoff     =      40.0000  Ry
     charge density cutoff     =     360.0000  Ry
     convergence threshold     =      1.0E-06
     mixing beta               =       0.7000
     number of iterations used =            8  plain     mixing
     Exchange-correlation      =  SLA  PW   PBX  PBC ( 1  4  3  4 0 0)

     celldm(1)=   4.648726  celldm(2)=   0.000000  celldm(3)=   0.000000
     celldm(4)=   0.000000  celldm(5)=   0.000000  celldm(6)=   0.000000

     crystal axes: (cart. coord. in units of alat)
               a(1) = (   1.000000   0.000000   0.000000 )
               a(2) = (   0.000000  12.195122   0.000000 )
               a(3) = (   0.000000   0.000000  12.195122 )

     reciprocal axes: (cart. coord. in units 2 pi/alat)
               b(1) = (  1.000000  0.000000  0.000000 )
               b(2) = (  0.000000  0.082000  0.000000 )
               b(3) = (  0.000000  0.000000  0.082000 )

     PseudoPot. # 1 for  C read from file:
     /home/renebeth/Downloads/pslibrary.1.0.0/pbe/PSEUDOPOTENTIALS/C.pbe-n-kjpaw_psl.1.0.0.UPF
     MD5 check sum: 7e2e586787e160620b6639e879676452
     Pseudo is Projector augmented-wave + core cor, Zval =  4.0
     Generated using "atomic" code by A. Dal Corso  v.6.0
     Shape of augmentation charge: PSQ
     Using radial grid of 1073 points,  4 beta functions with:
                l(1) =   0
                l(2) =   0
                l(3) =   1
                l(4) =   1
     Q(r) pseudized with 0 coefficients

     atomic species   valence    mass     pseudopotential
        C              4.00    12.01100      C( 1.00)

      2 Sym. Ops. (no inversion) found

                                    s                        frac. trans.

      isym =  1     identity

 cryst.   s( 1) = (     1          0          0      )
                  (     0          1          0      )
                  (     0          0          1      )

 cart.    s( 1) = (  1.0000000  0.0000000  0.0000000 )
                  (  0.0000000  1.0000000  0.0000000 )
                  (  0.0000000  0.0000000  1.0000000 )

      isym =  2     180 deg rotation - cart. axis [1,0,0]

 cryst.   s( 2) = (     1          0          0      )
                  (     0         -1          0      )
                  (     0          0         -1      )

 cart.    s( 2) = (  1.0000000  0.0000000  0.0000000 )
                  (  0.0000000 -1.0000000  0.0000000 )
                  (  0.0000000  0.0000000 -1.0000000 )

   Cartesian axes

     site n.     atom                  positions (alat units)
         1           C   tau(   1) = (   0.4999008   0.8516809  -2.6212049  )
         2           C   tau(   2) = (   0.0000000   1.6199935  -2.2297301  )
         3           C   tau(   3) = (   0.4999008   2.2297301  -1.6199935  )
         4           C   tau(   4) = (   0.0000000   2.6212049  -0.8516809  )
         5           C   tau(   5) = (   0.4999008   2.7560980   0.0000000  )
         6           C   tau(   6) = (   0.0000000   2.6212049   0.8516809  )
         7           C   tau(   7) = (   0.4999008   2.2297301   1.6199935  )
         8           C   tau(   8) = (   0.0000000   1.6199935   2.2297301  )
         9           C   tau(   9) = (   0.4999008   0.8516809   2.6212049  )
        10           C   tau(  10) = (   0.0000000   0.0000000   2.7560980  )
        11           C   tau(  11) = (   0.4999008  -0.8516809   2.6212049  )
        12           C   tau(  12) = (   0.0000000  -1.6199935   2.2297301  )
        13           C   tau(  13) = (   0.4999008  -2.2297301   1.6199935  )
        14           C   tau(  14) = (   0.0000000  -2.6212049   0.8516809  )
        15           C   tau(  15) = (   0.4999008  -2.7560980   0.0000000  )
        16           C   tau(  16) = (   0.0000000  -2.6212049  -0.8516809  )
        17           C   tau(  17) = (   0.4999008  -2.2297301  -1.6199935  )
        18           C   tau(  18) = (   0.0000000  -1.6199935  -2.2297301  )
        19           C   tau(  19) = (   0.4999008  -0.8516809  -2.6212049  )
        20           C   tau(  20) = (   0.0000000   0.0000000  -2.7560980  )
        21           C   tau(  21) = (   0.4999008   1.3780488  -2.3868508  )
        22           C   tau(  22) = (   0.0000000   2.0481797  -1.8441894  )
        23           C   tau(  23) = (   0.4999008   2.5178207  -1.1210061  )
        24           C   tau(  24) = (   0.0000000   2.7409996  -0.2880907  )
        25           C   tau(  25) = (   0.4999008   2.6958703   0.5730248  )
        26           C   tau(  26) = (   0.0000000   2.3868508   1.3780488  )
        27           C   tau(  27) = (   0.4999008   1.8441894   2.0481797  )
        28           C   tau(  28) = (   0.0000000   1.1210061   2.5178207  )
        29           C   tau(  29) = (   0.4999008   0.2880907   2.7409996  )
        30           C   tau(  30) = (   0.0000000  -0.5730248   2.6958703  )
        31           C   tau(  31) = (   0.4999008  -1.3780488   2.3868508  )
        32           C   tau(  32) = (   0.0000000  -2.0481797   1.8441894  )
        33           C   tau(  33) = (   0.4999008  -2.5178207   1.1210061  )
        34           C   tau(  34) = (   0.0000000  -2.7409996   0.2880907  )
        35           C   tau(  35) = (   0.4999008  -2.6958703  -0.5730248  )
        36           C   tau(  36) = (   0.0000000  -2.3868508  -1.3780488  )
        37           C   tau(  37) = (   0.4999008  -1.8441894  -2.0481797  )
        38           C   tau(  38) = (   0.0000000  -1.1210061  -2.5178207  )
        39           C   tau(  39) = (   0.4999008  -0.2880907  -2.7409996  )
        40           C   tau(  40) = (   0.0000000   0.5730248  -2.6958703  )

   Crystallographic axes

     site n.     atom                  positions (cryst. coord.)
         1           C   tau(   1) = (  0.4999008  0.0698378 -0.2149388  )
         2           C   tau(   2) = (  0.0000000  0.1328395 -0.1828379  )
         3           C   tau(   3) = (  0.4999008  0.1828379 -0.1328395  )
         4           C   tau(   4) = (  0.0000000  0.2149388 -0.0698378  )
         5           C   tau(   5) = (  0.4999008  0.2260000  0.0000000  )
         6           C   tau(   6) = (  0.0000000  0.2149388  0.0698378  )
         7           C   tau(   7) = (  0.4999008  0.1828379  0.1328395  )
         8           C   tau(   8) = (  0.0000000  0.1328395  0.1828379  )
         9           C   tau(   9) = (  0.4999008  0.0698378  0.2149388  )
        10           C   tau(  10) = (  0.0000000  0.0000000  0.2260000  )
        11           C   tau(  11) = (  0.4999008 -0.0698378  0.2149388  )
        12           C   tau(  12) = (  0.0000000 -0.1328395  0.1828379  )
        13           C   tau(  13) = (  0.4999008 -0.1828379  0.1328395  )
        14           C   tau(  14) = (  0.0000000 -0.2149388  0.0698378  )
        15           C   tau(  15) = (  0.4999008 -0.2260000  0.0000000  )
        16           C   tau(  16) = (  0.0000000 -0.2149388 -0.0698378  )
        17           C   tau(  17) = (  0.4999008 -0.1828379 -0.1328395  )
        18           C   tau(  18) = (  0.0000000 -0.1328395 -0.1828379  )
        19           C   tau(  19) = (  0.4999008 -0.0698378 -0.2149388  )
        20           C   tau(  20) = (  0.0000000  0.0000000 -0.2260000  )
        21           C   tau(  21) = (  0.4999008  0.1130000 -0.1957218  )
        22           C   tau(  22) = (  0.0000000  0.1679507 -0.1512235  )
        23           C   tau(  23) = (  0.4999008  0.2064613 -0.0919225  )
        24           C   tau(  24) = (  0.0000000  0.2247620 -0.0236234  )
        25           C   tau(  25) = (  0.4999008  0.2210614  0.0469880  )
        26           C   tau(  26) = (  0.0000000  0.1957218  0.1130000  )
        27           C   tau(  27) = (  0.4999008  0.1512235  0.1679507  )
        28           C   tau(  28) = (  0.0000000  0.0919225  0.2064613  )
        29           C   tau(  29) = (  0.4999008  0.0236234  0.2247620  )
        30           C   tau(  30) = (  0.0000000 -0.0469880  0.2210614  )
        31           C   tau(  31) = (  0.4999008 -0.1130000  0.1957218  )
        32           C   tau(  32) = (  0.0000000 -0.1679507  0.1512235  )
        33           C   tau(  33) = (  0.4999008 -0.2064613  0.0919225  )
        34           C   tau(  34) = (  0.0000000 -0.2247620  0.0236234  )
        35           C   tau(  35) = (  0.4999008 -0.2210614 -0.0469880  )
        36           C   tau(  36) = (  0.0000000 -0.1957218 -0.1130000  )
        37           C   tau(  37) = (  0.4999008 -0.1512235 -0.1679507  )
        38           C   tau(  38) = (  0.0000000 -0.0919225 -0.2064613  )
        39           C   tau(  39) = (  0.4999008 -0.0236234 -0.2247620  )
        40           C   tau(  40) = (  0.0000000  0.0469880 -0.2210614  )

     number of k points=     6  gaussian smearing, width (Ry)=  0.0300
                       cart. coord. in units 2pi/alat
        k(    1) = (   0.0000000   0.0000000   0.0000000), wk =   0.2000000
        k(    2) = (   0.1000000   0.0000000   0.0000000), wk =   0.4000000
        k(    3) = (   0.2000000   0.0000000   0.0000000), wk =   0.4000000
        k(    4) = (   0.3000000   0.0000000   0.0000000), wk =   0.4000000
        k(    5) = (   0.4000000   0.0000000   0.0000000), wk =   0.4000000
        k(    6) = (  -0.5000000   0.0000000   0.0000000), wk =   0.2000000

                       cryst. coord.
        k(    1) = (   0.0000000   0.0000000   0.0000000), wk =   0.2000000
        k(    2) = (   0.1000000   0.0000000   0.0000000), wk =   0.4000000
        k(    3) = (   0.2000000   0.0000000   0.0000000), wk =   0.4000000
        k(    4) = (   0.3000000   0.0000000   0.0000000), wk =   0.4000000
        k(    5) = (   0.4000000   0.0000000   0.0000000), wk =   0.4000000
        k(    6) = (  -0.5000000   0.0000000   0.0000000), wk =   0.2000000

     Check: negative/imaginary core charge=   -0.000004    0.000000

     Initial potential from superposition of free atoms
     Check: negative starting charge=   -0.003230

     starting charge  159.99834, renormalised to  160.00000

     negative rho (up, down):  3.230E-03 0.000E+00
     Starting wfc are  160 randomized atomic wfcs +   20 random wfc

     Self-consistent Calculation

     iteration #  1     ecut=    40.00 Ry     beta=0.70
     Davidson diagonalization with overlap
     ethr =  1.00E-02,  avg # of iterations = 11.5

     negative rho (up, down):  5.188E-03 0.000E+00

     total energy              =    -736.90891402 Ry
     Harris-Foulkes estimate   =    -739.48712281 Ry
     estimated scf accuracy    <       4.17727727 Ry

[...]

     iteration #  5     ecut=    40.00 Ry     beta=0.70
     Davidson diagonalization with overlap
     c_bands:  2 eigenvalues not converged
     c_bands:  2 eigenvalues not converged
     c_bands:  1 eigenvalues not converged
     ethr =  2.06E-06,  avg # of iterations = 14.8

[...]

     total energy              =    -737.60264756 Ry
     Harris-Foulkes estimate   =    -737.60266205 Ry
     estimated scf accuracy    <       0.00004921 Ry

     iteration #  7     ecut=    40.00 Ry     beta=0.70
     Davidson diagonalization with overlap
     ethr =  3.08E-08,  avg # of iterations =  1.2

     negative rho (up, down):  6.086E-03 0.000E+00

     End of self-consistent calculation

          k = 0.0000 0.0000 0.0000 ( 63941 PWs)   bands (ev):

   -22.1334 -22.0722 -22.0718 -21.8884 -21.8881 -21.5834 -21.5832 -21.1594
   -21.1593 -20.6192 -20.6192 -19.9671 -19.9671 -19.2088 -19.2088 -18.3545
   -18.3545 -17.4349 -17.4348 -16.7648 -15.7584 -15.0054 -15.0052 -13.8393
   -13.8393 -12.5848 -12.5848 -11.2921 -11.2921 -10.2198 -10.1478 -10.1475
   -10.0222 -10.0221  -9.9341  -9.9338  -9.5928  -9.5926  -9.2542  -9.2540
    -8.9725  -8.9128  -8.9124  -8.7345  -8.7342  -8.4433  -8.4432  -8.4189
    -8.4188  -8.2950  -8.2950  -8.0501  -8.0499  -7.5856  -7.5856  -7.5726
    -7.5725  -7.4041  -7.4039  -7.0389  -7.0388  -6.7490  -6.7490  -6.4925
    -6.4924  -6.4394  -6.4391  -5.9991  -5.9989  -5.8633  -5.8632  -5.7711
    -5.7708  -5.6446  -5.6443  -5.5299  -5.5135  -5.0672  -5.0669  -4.7000
    -0.8079  -0.3622  -0.3619   0.5704   0.6634   0.6636   0.7981   0.7983
     1.0623   1.0946   1.2113   1.3409   1.3410   1.4673   1.5422   1.5423
     1.6469   1.6479   1.7104   1.7765   1.7765   1.8818   1.9016   1.9017
     1.9243   1.9243   1.9350   2.0087   2.3403   2.3431   2.3578   2.3579
     2.3919   2.5568   2.5569   2.5587   2.6666   2.7091   2.7208   2.7480
     2.7481   2.8595   2.8595   2.8772   3.1177   3.1601   3.2228   3.2229
     3.2454   3.2601   3.3142   3.3219   3.3721   3.3722   3.7330   3.7330
     3.7894   3.8022   3.8266   3.9442   3.9442   3.9722   4.0162   4.0163
     4.1069   4.1376   4.1876   4.2433   4.2913   4.2913   4.3565   4.3566
     4.4781   4.5376   4.5377   4.5483   4.6165   4.6165   4.6442   4.7533
     4.9256   4.9445   4.9448   5.0002   5.0685   5.1264   5.1607   5.1608
     5.1700   5.1906   5.2317   5.2318   5.2392   5.2751   5.3767   5.3784
     5.4075   5.4117   5.4117   5.4268

     occupation numbers
     1.0000   1.0000   1.0000   1.0000   1.0000   1.0000   1.0000   1.0000
     1.0000   1.0000   1.0000   1.0000   1.0000   1.0000   1.0000   1.0000
     1.0000   1.0000   1.0000   1.0000   1.0000   1.0000   1.0000   1.0000
     1.0000   1.0000   1.0000   1.0000   1.0000   1.0000   1.0000   1.0000
     1.0000   1.0000   1.0000   1.0000   1.0000   1.0000   1.0000   1.0000
     1.0000   1.0000   1.0000   1.0000   1.0000   1.0000   1.0000   1.0000
     1.0000   1.0000   1.0000   1.0000   1.0000   1.0000   1.0000   1.0000
     1.0000   1.0000   1.0000   1.0000   1.0000   1.0000   1.0000   1.0000
     1.0000   1.0000   1.0000   1.0000   1.0000   1.0000   1.0000   1.0000
     1.0000   1.0000   1.0000   1.0000   1.0000   1.0000   1.0000   1.0000
     0.0000   0.0000   0.0000   0.0000   0.0000   0.0000   0.0000   0.0000
     0.0000   0.0000   0.0000   0.0000   0.0000   0.0000   0.0000   0.0000
     0.0000   0.0000   0.0000   0.0000   0.0000   0.0000   0.0000   0.0000
     0.0000   0.0000   0.0000   0.0000   0.0000   0.0000   0.0000   0.0000
     0.0000   0.0000   0.0000   0.0000   0.0000   0.0000   0.0000   0.0000
     0.0000   0.0000   0.0000   0.0000   0.0000   0.0000   0.0000   0.0000
     0.0000   0.0000   0.0000   0.0000   0.0000   0.0000   0.0000   0.0000
     0.0000   0.0000   0.0000   0.0000   0.0000   0.0000   0.0000   0.0000
     0.0000   0.0000   0.0000   0.0000   0.0000   0.0000   0.0000   0.0000
     0.0000   0.0000   0.0000   0.0000   0.0000   0.0000   0.0000   0.0000
     0.0000   0.0000   0.0000   0.0000   0.0000   0.0000   0.0000   0.0000
     0.0000   0.0000   0.0000   0.0000   0.0000   0.0000   0.0000   0.0000
     0.0000   0.0000   0.0000   0.0000

[...]

          k = 0.4000 0.0000 0.0000 ( 63738 PWs)   bands (ev):

[...]

          k =-0.5000 0.0000 0.0000 ( 63714 PWs)   bands (ev):

   -17.8278 -17.8246 -17.7724 -17.7720 -17.7692 -17.7688 -17.6082 -17.6079
   -17.6050 -17.6047 -17.3459 -17.3458 -17.3428 -17.3427 -17.0243 -17.0241
   -17.0218 -17.0216 -16.8236 -16.8235 -15.7933 -15.7932 -15.4968 -15.4968
   -15.4941 -15.4941 -14.8860 -14.8860 -14.8826 -14.8826 -14.1627 -14.1626
   -14.1590 -14.1589 -13.4316 -13.4314 -13.4275 -13.4273 -13.0156 -13.0110
   -11.4753 -11.4737 -11.0489 -11.0487 -11.0469 -11.0467 -10.3018 -10.3017
   -10.2997 -10.2996  -9.6028  -9.6027  -9.6011  -9.6010  -9.1063  -9.1063
    -9.1053  -9.1053  -8.9249  -8.9249  -5.2843  -5.2808  -5.2488  -5.2485
    -5.2454  -5.2451  -5.1499  -5.1496  -5.1468  -5.1465  -5.0150  -5.0149
    -5.0126  -5.0124  -4.8921  -4.8919  -4.8907  -4.8905  -4.8404  -4.8404
    -0.8893  -0.8892  -0.7662  -0.7661  -0.7646  -0.7645  -0.4466  -0.4465
    -0.4437  -0.4436  -0.0519  -0.0517  -0.0481  -0.0479   0.2746   0.2749
     0.2790   0.2793   0.4026   0.4072   4.9993   4.9993   5.2543   5.2544
     5.2556   5.2556   5.9697   5.9698   5.9720   5.9720   6.5671   6.5675
     6.7751   6.7753   6.7756   6.7758   6.9599   6.9599   6.9625   6.9625
     7.1050   7.1053   7.1206   7.1210   7.2273   7.2275   7.3865   7.3866
     7.3868   7.3869   7.4281   7.4283   7.4287   7.4289   7.6357   7.6358
     7.7415   7.7417   7.7866   7.7869   7.7987   7.7989   7.8751   7.8751
     7.8758   7.8759   8.0135   8.0138   8.0473   8.0473   8.0577   8.0577
     8.0871   8.0871   8.1968   8.1968   8.3930   8.3932   8.4202   8.4203
     8.4394   8.4395   8.4441   8.4442   8.4653   8.4653   8.4733   8.4735
     8.4902   8.4902   8.5495   8.5498   8.6396   8.6398   8.6944   8.6945
     8.6965   8.6966   8.7922   8.7922

     occupation numbers
     1.0000   1.0000   1.0000   1.0000   1.0000   1.0000   1.0000   1.0000
     1.0000   1.0000   1.0000   1.0000   1.0000   1.0000   1.0000   1.0000
     1.0000   1.0000   1.0000   1.0000   1.0000   1.0000   1.0000   1.0000
     1.0000   1.0000   1.0000   1.0000   1.0000   1.0000   1.0000   1.0000
     1.0000   1.0000   1.0000   1.0000   1.0000   1.0000   1.0000   1.0000
     1.0000   1.0000   1.0000   1.0000   1.0000   1.0000   1.0000   1.0000
     1.0000   1.0000   1.0000   1.0000   1.0000   1.0000   1.0000   1.0000
     1.0000   1.0000   1.0000   1.0000   1.0000   1.0000   1.0000   1.0000
     1.0000   1.0000   1.0000   1.0000   1.0000   1.0000   1.0000   1.0000
     1.0000   1.0000   1.0000   1.0000   1.0000   1.0000   1.0000   1.0000
     0.0000   0.0000   0.0000   0.0000   0.0000   0.0000   0.0000   0.0000
     0.0000   0.0000   0.0000   0.0000   0.0000   0.0000   0.0000   0.0000
     0.0000   0.0000   0.0000   0.0000   0.0000   0.0000   0.0000   0.0000
     0.0000   0.0000   0.0000   0.0000   0.0000   0.0000   0.0000   0.0000
     0.0000   0.0000   0.0000   0.0000   0.0000   0.0000   0.0000   0.0000
     0.0000   0.0000   0.0000   0.0000   0.0000   0.0000   0.0000   0.0000
     0.0000   0.0000   0.0000   0.0000   0.0000   0.0000   0.0000   0.0000
     0.0000   0.0000   0.0000   0.0000   0.0000   0.0000   0.0000   0.0000
     0.0000   0.0000   0.0000   0.0000   0.0000   0.0000   0.0000   0.0000
     0.0000   0.0000   0.0000   0.0000   0.0000   0.0000   0.0000   0.0000
     0.0000   0.0000   0.0000   0.0000   0.0000   0.0000   0.0000   0.0000
     0.0000   0.0000   0.0000   0.0000   0.0000   0.0000   0.0000   0.0000
     0.0000   0.0000   0.0000   0.0000

     the Fermi energy is    -2.4319 ev

!    total energy              =    -737.60265544 Ry
     Harris-Foulkes estimate   =    -737.60265544 Ry
     estimated scf accuracy    <       0.00000034 Ry

     total all-electron energy =     -3048.166569 Ry

     The total energy is the sum of the following terms:

     one-electron contribution =   -6507.65668944 Ry
     hartree contribution      =    3281.75560982 Ry
     xc contribution           =    -185.75486810 Ry
     ewald contribution        =    2920.74532309 Ry
     one-center paw contrib.   =    -246.68893403 Ry
     smearing contrib. (-TS)   =      -0.00309679 Ry

     convergence has been achieved in   7 iterations

     Writing output data file ./mol.save

     General routines

     PAW routines

   This run was terminated on:  18:52:40  21Nov2018

   JOB DONE.